NAME : pr20.tsp
COMMENT : 20-city problem
TYPE : TSP 
DIMENSION : 20
EDGE_WEIGHT_TYPE : CEIL_2D
NODE_COORD_SECTION 
1  5.262800e+04 4.900100e+04 
2  5.882300e+04 1.126500e+04 
3  1.499600e+04 4.058700e+04 
4  1.308200e+04 4.035200e+04 
5  8.664500e+04 9.270800e+04 
6  8.623900e+04 1.943100e+04 
7  7.252000e+03 9.722800e+04 
8  5.960900e+04 2.603100e+04 
9  6.440000e+02 5.081000e+03 
10 7.116500e+04 8.558900e+04 
11 6.160700e+04 9.159000e+04 
12 5.422800e+04 3.079800e+04 
13 5.945700e+04 3.936800e+04 
14 4.501700e+04 2.517500e+04 
15 8.811600e+04 8.354100e+04 
16 4.352600e+04 4.192000e+03 
17 2.972900e+04 2.978800e+04 
18 4.939400e+04 5.530700e+04 
19 4.110300e+04 7.744200e+04 
20 1.183100e+04 3.267200e+04 
EOF 
